8373
1 1 1 0 0 1 0 1 1 1 
0 8 0 0 0 0 0 0 0 0 0 1 1 1 0 1 1 2 2 2 2 2 2 2 2 2 2 7 2 2 2 2 2 2 2 5 2 7 2 5 2 2 2 2 2 2 2 7 5 5 5 5 5 5 5 5 5 0 7 2 5 5 7 7 7 7 7 7 7 7 7 7 7 7 8 7 7 8 8 8 8 0 9 7 9 9 9 7 9 9 
